NAME          
ROWS
 N  OBJ
 L  c1
 L  c2
 L  c3
 L  c4
 L  c5
COLUMNS
    MARKER    'MARKER'                 'INTORG'
    x[1]      c1        949
    x[1]      c2        543
    x[1]      c3        880
    x[1]      c4        669
    x[1]      c5        754
    x[1]      OBJ       -597
    x[2]      c1        696
    x[2]      c2        301
    x[2]      c3        187
    x[2]      c4        672
    x[2]      c5        819
    x[2]      OBJ       -211
    x[3]      c1        415
    x[3]      c2        424
    x[3]      c3        340
    x[3]      c4        217
    x[3]      c5        17
    x[3]      OBJ       -823
    x[4]      c1        936
    x[4]      c2        843
    x[4]      c3        972
    x[4]      c4        678
    x[4]      c5        354
    x[4]      OBJ       -595
    x[5]      c1        513
    x[5]      c2        541
    x[5]      c3        781
    x[5]      c4        314
    x[5]      c5        694
    x[5]      OBJ       -323
    x[6]      c1        342
    x[6]      c2        64
    x[6]      c3        413
    x[6]      c4        908
    x[6]      c5        319
    x[6]      OBJ       -605
    x[7]      c1        452
    x[7]      c2        193
    x[7]      c3        366
    x[7]      c4        343
    x[7]      c5        781
    x[7]      OBJ       -200
    x[8]      c1        276
    x[8]      c2        537
    x[8]      c3        605
    x[8]      c4        7
    x[8]      c5        315
    x[8]      OBJ       -318
    x[9]      c1        513
    x[9]      c2        81
    x[9]      c3        123
    x[9]      c4        466
    x[9]      c5        239
    x[9]      OBJ       -397
    x[10]     c1        751
    x[10]     c2        922
    x[10]     c3        461
    x[10]     c4        82
    x[10]     c5        573
    x[10]     OBJ       -325
    x[11]     c1        683
    x[11]     c2        241
    x[11]     c3        793
    x[11]     c4        281
    x[11]     c5        585
    x[11]     OBJ       -538
    x[12]     c1        74
    x[12]     c2        141
    x[12]     c3        320
    x[12]     c4        964
    x[12]     c5        512
    x[12]     OBJ       -146
    x[13]     c1        417
    x[13]     c2        186
    x[13]     c3        10
    x[13]     c4        927
    x[13]     c5        432
    x[13]     OBJ       -257
    x[14]     c1        803
    x[14]     c2        873
    x[14]     c3        769
    x[14]     c4        882
    x[14]     c5        801
    x[14]     OBJ       -517
    x[15]     c1        340
    x[15]     c2        733
    x[15]     c3        225
    x[15]     c4        507
    x[15]     c5        294
    x[15]     OBJ       -765
    x[16]     c1        120
    x[16]     c2        160
    x[16]     c3        370
    x[16]     c4        340
    x[16]     c5        549
    x[16]     OBJ       -311
    x[17]     c1        758
    x[17]     c2        806
    x[17]     c3        477
    x[17]     c4        519
    x[17]     c5        369
    x[17]     OBJ       -41
    x[18]     c1        479
    x[18]     c2        450
    x[18]     c3        335
    x[18]     c4        835
    x[18]     c5        171
    x[18]     OBJ       -421
    x[19]     c1        573
    x[19]     c2        984
    x[19]     c3        583
    x[19]     c4        911
    x[19]     c5        272
    x[19]     OBJ       -724
    x[20]     c1        84
    x[20]     c2        552
    x[20]     c3        33
    x[20]     c4        423
    x[20]     c5        305
    x[20]     OBJ       -409
    x[21]     c1        657
    x[21]     c2        398
    x[21]     c3        125
    x[21]     c4        709
    x[21]     c5        330
    x[21]     OBJ       -215
    x[22]     c1        145
    x[22]     c2        604
    x[22]     c3        390
    x[22]     c4        116
    x[22]     c5        887
    x[22]     OBJ       -895
    x[23]     c1        731
    x[23]     c2        180
    x[23]     c3        962
    x[23]     c4        936
    x[23]     c5        888
    x[23]     OBJ       -527
    x[24]     c1        967
    x[24]     c2        717
    x[24]     c3        793
    x[24]     c4        490
    x[24]     c5        803
    x[24]     OBJ       -952
    x[25]     c1        369
    x[25]     c2        220
    x[25]     c3        795
    x[25]     c4        881
    x[25]     c5        182
    x[25]     OBJ       -849
    x[26]     c1        664
    x[26]     c2        44
    x[26]     c3        882
    x[26]     c4        14
    x[26]     c5        542
    x[26]     OBJ       -278
    x[27]     c1        939
    x[27]     c2        388
    x[27]     c3        359
    x[27]     c4        4
    x[27]     c5        109
    x[27]     OBJ       -958
    x[28]     c1        643
    x[28]     c2        343
    x[28]     c3        472
    x[28]     c4        304
    x[28]     c5        641
    x[28]     OBJ       -709
    x[29]     c1        577
    x[29]     c2        467
    x[29]     c3        416
    x[29]     c4        595
    x[29]     c5        877
    x[29]     OBJ       -462
    x[30]     c1        809
    x[30]     c2        203
    x[30]     c3        211
    x[30]     c4        971
    x[30]     c5        676
    x[30]     OBJ       -178
    x[31]     c1        945
    x[31]     c2        217
    x[31]     c3        131
    x[31]     c4        222
    x[31]     c5        619
    x[31]     OBJ       -922
    x[32]     c1        164
    x[32]     c2        258
    x[32]     c3        845
    x[32]     c4        339
    x[32]     c5        756
    x[32]     OBJ       -892
    x[33]     c1        887
    x[33]     c2        497
    x[33]     c3        332
    x[33]     c4        53
    x[33]     c5        505
    x[33]     OBJ       -807
    x[34]     c1        291
    x[34]     c2        151
    x[34]     c3        153
    x[34]     c4        253
    x[34]     c5        769
    x[34]     OBJ       -85
    x[35]     c1        755
    x[35]     c2        440
    x[35]     c3        705
    x[35]     c4        192
    x[35]     c5        19
    x[35]     OBJ       -201
RHS
    rhs       c1        9858
    rhs       c2        7351
    rhs       c3        8307
    rhs       c4        8512
    rhs       c5        8879
RANGES
BOUNDS
 BV bounds    x[1]
 BV bounds    x[2]
 BV bounds    x[3]
 BV bounds    x[4]
 BV bounds    x[5]
 BV bounds    x[6]
 BV bounds    x[7]
 BV bounds    x[8]
 BV bounds    x[9]
 BV bounds    x[10]
 BV bounds    x[11]
 BV bounds    x[12]
 BV bounds    x[13]
 BV bounds    x[14]
 BV bounds    x[15]
 BV bounds    x[16]
 BV bounds    x[17]
 BV bounds    x[18]
 BV bounds    x[19]
 BV bounds    x[20]
 BV bounds    x[21]
 BV bounds    x[22]
 BV bounds    x[23]
 BV bounds    x[24]
 BV bounds    x[25]
 BV bounds    x[26]
 BV bounds    x[27]
 BV bounds    x[28]
 BV bounds    x[29]
 BV bounds    x[30]
 BV bounds    x[31]
 BV bounds    x[32]
 BV bounds    x[33]
 BV bounds    x[34]
 BV bounds    x[35]
ENDATA
